 200 37 
 44 80 51 97 19 97 36 32 6 34 27 35 
 35 3 46 54 87 45 24 87 32 28 67 49 
 98 91 7 49 90 52 77 25 38 21 18 94 
 98 
 27 
 1 2 3 4 5 8 10 11 15 16 17 18 
 19 20 21 22 23 24 25 26 27 28 29 30 
 32 33 34 
 22 
 2 5 6 8 9 10 11 13 14 17 18 21 
 24 25 26 27 29 30 31 33 34 35 
 11 
 4 5 6 13 14 20 21 24 25 27 28 
 30 
 2 3 4 5 6 7 8 9 10 13 15 16 
 17 20 21 22 23 24 25 26 27 28 29 30 
 31 33 34 35 36 37 
 24 
 2 7 8 9 12 13 14 15 16 17 18 20 
 21 22 23 24 27 29 30 32 33 34 36 37 
 7 
 1 4 5 6 13 16 37 
 4 
 3 5 8 31 
 6 
 1 6 20 25 28 34 
 23 
 1 5 6 9 10 13 14 15 16 20 21 22 
 23 27 28 29 30 31 32 33 34 35 36 
 20 
 1 2 3 4 7 9 11 12 14 15 16 20 
 26 27 29 30 33 34 36 37 
 35 
 1 2 4 5 6 7 8 9 10 12 13 14 
 15 16 17 18 19 20 21 22 23 24 25 26 
 27 28 29 30 31 32 33 34 35 36 37 
 32 
 1 2 4 5 6 7 8 9 10 11 12 15 
 16 17 18 19 20 21 22 23 24 26 27 28 
 29 30 31 32 33 34 36 37 
 15 
 4 6 8 10 11 13 16 20 22 24 28 29 
 30 31 33 
 15 
 2 4 8 13 17 20 22 25 26 28 32 33 
 34 35 36 
 22 
 1 2 6 8 9 12 13 16 18 22 23 24 
 26 27 28 29 30 31 32 33 34 36 
 36 
 2 3 4 5 6 7 8 9 10 11 12 13 
 14 15 16 17 18 19 20 21 22 23 24 25 
 26 27 28 29 30 31 32 33 34 35 36 37 
 15 
 1 3 6 7 9 10 15 18 21 26 27 29 
 32 34 35 
 32 
 2 3 4 5 6 7 8 9 10 11 12 13 
 14 15 16 18 20 21 22 23 24 25 26 27 
 28 29 31 32 33 34 36 37 
 7 
 4 11 16 22 23 25 35 
 11 
 2 4 6 16 17 25 30 32 33 34 37 
 30 
 1 2 3 5 6 7 8 9 10 11 12 13 
 14 16 17 20 21 22 23 24 25 26 28 29 
 30 31 34 35 36 37 
 21 
 1 2 5 6 13 14 15 16 19 21 22 23 
 24 25 26 30 31 32 33 34 35 
 27 
 1 2 4 5 6 8 9 10 11 12 13 14 
 18 19 20 21 22 23 24 25 26 29 32 33 
 34 36 37 
 2 
 2 34 
 11 
 1 2 10 12 13 14 16 21 26 31 35 
 4 
 1 4 7 11 
 14 
 3 7 8 14 15 16 23 24 27 28 29 30 
 33 37 
 22 
 1 2 3 4 6 7 8 9 10 11 13 17 
 18 21 24 27 29 31 33 34 36 37 
 27 
 1 2 3 4 5 7 8 12 13 14 18 19 
 21 22 24 25 26 27 28 29 31 32 33 34 
 35 36 37 
 25 
 1 3 5 6 8 9 11 12 13 14 19 21 
 23 24 25 26 27 28 30 31 32 33 34 36 
 37 
 13 
 1 3 6 7 8 9 12 14 22 27 30 31 
 36 
 28 
 1 5 6 7 9 10 11 12 13 14 15 16 
 17 18 19 20 21 22 23 24 26 30 32 33 
 34 35 36 37 
 21 
 1 3 4 5 6 7 8 11 12 13 14 16 
 18 20 22 23 25 27 28 35 36 
 22 
 2 3 5 7 8 12 14 15 16 18 19 21 
 23 24 26 27 29 31 33 34 35 36 
 11 
 1 3 8 10 13 15 19 22 26 30 33 
 9 
 3 6 12 13 16 18 28 29 37 
 36 
 1 2 3 4 5 6 7 8 9 10 11 12 
 13 14 15 16 17 18 19 20 21 22 23 24 
 25 26 28 29 30 31 32 33 34 35 36 37 
 2 
 12 23 
 14 
 7 8 10 11 15 17 20 21 22 24 31 32 
 33 34 
 28 
 1 3 4 5 6 10 11 12 13 14 16 18 
 19 20 21 22 24 26 27 28 29 30 31 33 
 34 35 36 37 
 15 
 3 4 5 7 9 12 13 19 21 22 24 27 
 28 29 31 
 13 
 1 3 4 8 10 15 19 21 22 30 32 35 
 36 
 32 
 2 3 4 5 6 8 9 10 11 12 13 14 
 15 16 17 18 19 20 21 23 24 25 26 27 
 28 29 30 32 33 34 35 37 
 36 
 1 2 3 5 6 7 8 9 10 11 12 13 
 14 15 16 17 18 19 20 21 22 23 24 25 
 26 27 28 29 30 31 32 33 34 35 36 37 
 20 
 1 2 3 4 5 6 7 8 10 12 13 16 
 17 18 27 29 31 34 35 37 
 22 
 2 4 6 7 8 11 13 15 18 21 22 23 
 24 25 28 30 31 32 33 34 35 36 
 24 
 2 3 4 5 6 12 13 15 16 17 19 20 
 21 22 23 24 26 27 28 29 30 32 33 35 
 28 
 1 2 3 4 5 6 7 8 9 12 17 18 
 19 20 22 23 25 26 27 28 29 30 31 32 
 34 35 36 37 
 15 
 1 2 5 7 9 11 12 13 14 18 19 22 
 25 26 27 
 6 
 1 7 9 17 24 31 
 6 
 11 21 24 25 26 33 
 26 
 1 2 3 4 6 7 8 10 12 13 15 16 
 17 18 19 20 21 23 24 26 28 30 31 32 
 35 37 
 26 
 1 2 3 4 5 6 9 10 11 14 15 16 
 17 19 22 23 24 25 26 27 29 30 32 34 
 36 37 
 6 
 4 10 22 23 29 33 
 6 
 15 24 26 29 32 35 
 30 
 1 2 3 4 5 6 7 8 9 10 11 12 
 13 14 15 16 17 19 20 22 23 24 25 27 
 28 30 31 33 34 36 
 2 
 16 26 
 3 
 22 25 30 
 15 
 2 3 4 9 10 12 14 17 18 21 27 30 
 33 36 37 
 31 
 1 2 3 4 5 6 7 8 9 10 12 13 
 14 16 17 18 19 21 22 23 25 26 27 28 
 29 30 31 32 34 35 37 
 32 
 1 2 3 4 6 8 9 10 11 12 13 14 
 17 18 19 20 21 22 23 24 25 26 27 28 
 29 30 32 33 34 35 36 37 
 19 
 2 3 7 8 9 10 16 17 18 19 20 23 
 25 31 32 33 34 35 36 
 20 
 1 4 6 7 9 11 13 14 15 16 17 18 
 19 20 22 24 27 29 30 32 
 30 
 1 2 3 4 5 6 10 11 12 15 16 19 
 20 21 22 23 24 25 26 27 28 29 30 31 
 32 33 34 35 36 37 
 4 
 14 16 19 34 
 21 
 2 5 6 9 11 12 13 15 16 18 20 21 
 23 25 27 28 29 33 34 35 37 
 18 
 1 3 5 6 7 8 11 12 13 15 16 18 
 21 22 25 28 29 37 
 27 
 1 2 3 4 5 6 7 9 11 12 14 15 
 16 18 19 20 22 23 24 25 26 27 28 30 
 32 35 37 
 28 
 1 3 4 5 6 11 12 13 14 15 17 18 
 19 20 21 23 25 26 27 28 29 30 32 33 
 34 35 36 37 
 5 
 2 11 14 17 37 
 30 
 1 2 3 5 6 7 8 10 11 12 13 14 
 15 16 20 21 22 23 24 25 26 27 28 29 
 31 32 33 34 35 37 
 36 
 1 2 3 4 5 6 7 8 9 10 11 12 
 13 14 15 16 17 18 19 20 21 22 23 24 
 25 26 27 29 30 31 32 33 34 35 36 37 
 25 
 1 2 5 6 7 9 10 11 12 13 14 17 
 18 20 23 26 27 28 29 30 31 32 34 35 
 37 
 6 
 1 6 7 9 27 30 
 35 
 1 2 3 4 5 6 7 8 9 10 11 12 
 13 14 15 16 17 18 20 21 22 23 24 25 
 26 27 28 29 30 31 32 33 35 36 37 
 24 
 1 2 3 4 5 10 11 12 13 15 16 17 
 18 19 20 21 23 25 27 29 30 32 33 35 
 27 
 1 2 3 4 5 7 8 10 12 13 15 16 
 17 18 21 23 24 25 27 28 29 31 32 33 
 35 36 37 
 4 
 11 19 29 35 
 5 
 5 20 25 27 37 
 28 
 1 2 3 4 6 7 8 9 13 15 16 17 
 18 20 21 22 23 24 26 27 28 30 31 32 
 33 34 36 37 
 29 
 1 2 3 7 8 10 13 14 15 16 17 18 
 19 20 21 22 23 24 26 27 28 29 30 31 
 32 33 34 35 37 
 33 
 1 2 3 4 5 6 7 8 9 10 11 13 
 14 15 16 17 18 19 20 21 22 23 24 25 
 26 28 30 31 32 33 34 35 36 
 20 
 1 2 4 6 7 8 10 12 13 14 15 17 
 18 19 20 25 27 28 35 37 
 16 
 1 6 7 9 10 14 15 17 21 26 29 32 
 34 35 36 37 
 7 
 5 8 12 19 20 29 30 
 27 
 2 3 4 5 8 9 10 11 12 13 14 15 
 16 17 19 20 24 25 26 27 28 29 30 32 
 33 35 37 
 16 
 1 2 3 6 7 13 15 17 20 21 22 23 
 26 27 33 36 
 6 
 3 10 12 17 19 21 
 33 
 1 2 3 4 7 8 9 10 11 12 13 14 
 15 16 17 18 19 20 21 22 24 25 26 27 
 28 29 30 31 32 33 34 36 37 
 17 
 2 8 9 10 11 12 13 18 19 20 23 24 
 28 32 33 34 37 
 13 
 11 12 13 20 21 22 23 26 28 29 30 32 
 36 
 25 
 2 3 5 6 7 8 11 14 15 17 20 21 
 22 23 24 26 27 30 31 32 33 34 35 36 
 37 
 29 
 2 4 5 6 7 8 9 10 12 13 14 15 
 19 20 21 22 23 24 25 26 27 28 31 32 
 33 34 35 36 37 
 12 
 1 5 17 19 27 28 31 33 34 35 36 37 
 36 
 1 2 3 4 5 6 7 8 9 10 11 12 
 13 14 15 16 17 18 19 20 21 22 23 25 
 26 27 28 29 30 31 32 33 34 35 36 37 
 11 
 1 8 14 15 17 22 24 28 29 35 37 
 19 
 2 4 7 8 9 10 11 14 15 17 18 19 
 20 22 24 27 31 33 36 
 2 
 1 26 
 33 
 1 2 3 4 5 6 7 8 9 10 11 12 
 13 14 15 16 17 19 20 21 22 23 24 25 
 26 27 28 29 31 32 34 36 37 
 24 
 2 3 4 5 7 8 10 11 13 14 16 17 
 18 19 20 21 23 25 27 28 30 32 34 35 
 10 
 2 9 16 20 24 25 26 27 33 34 
 29 
 2 3 4 5 6 8 9 10 13 14 15 16 
 17 18 19 21 22 23 24 26 27 28 30 31 
 32 33 34 35 36 
 3 
 16 23 28 
 31 
 2 3 4 5 6 7 8 9 10 11 12 13 
 14 15 16 17 19 20 21 22 23 25 26 28 
 29 30 31 34 35 36 37 
 11 
 3 7 11 14 18 25 26 28 29 30 35 
 22 
 1 2 3 4 5 7 8 9 10 11 13 15 
 16 17 21 22 23 25 30 31 32 34 
 16 
 1 3 6 8 11 12 14 17 18 19 27 30 
 31 32 33 37 
 11 
 5 7 10 12 13 18 26 27 28 29 30 
 26 
 2 4 6 7 8 9 10 11 13 14 15 18 
 20 22 23 25 26 27 28 29 30 32 33 34 
 35 37 
 15 
 4 6 8 9 11 17 20 21 23 24 27 30 
 32 34 37 
 11 
 3 11 15 19 24 25 27 30 31 32 33 
 37 
 1 2 3 4 5 6 7 8 9 10 11 12 
 13 14 15 16 17 18 19 20 21 22 23 24 
 25 26 27 28 29 30 31 32 33 34 35 36 
 37 
 10 
 3 9 12 17 21 23 24 26 29 34 
 28 
 1 2 3 4 5 7 8 9 12 14 15 17 
 18 19 21 22 23 24 25 27 28 29 30 31 
 32 33 35 37 
 27 
 1 2 3 4 5 6 7 8 9 10 16 17 
 18 19 22 23 24 25 26 27 28 29 30 31 
 34 36 37 
 2 
 21 26 
 19 
 3 5 6 8 10 16 19 20 22 23 24 25 
 26 28 30 32 33 35 36 
 20 
 1 2 3 4 5 7 8 9 10 13 17 18 
 20 21 22 28 31 32 34 37 
 12 
 8 10 12 14 17 20 24 29 32 33 34 35 
 14 
 1 4 9 11 12 13 18 19 20 21 23 28 
 32 34 
 15 
 3 12 15 16 17 20 21 27 28 29 31 32 
 33 34 35 
 20 
 1 2 3 7 8 9 10 12 15 16 17 21 
 22 23 25 26 28 30 32 33 
 31 
 1 3 4 5 7 8 9 10 11 12 13 14 
 15 16 17 18 19 20 21 22 23 25 26 27 
 28 31 33 34 35 36 37 
 16 
 1 2 4 13 18 19 21 23 24 26 27 29 
 30 32 36 37 
 11 
 7 10 12 16 17 22 23 24 29 30 35 
 22 
 2 5 6 8 10 11 14 18 19 20 22 23 
 24 25 27 29 30 31 32 33 34 35 
 12 
 4 6 10 11 13 14 22 24 25 27 29 34 
 15 
 6 7 11 13 14 18 19 22 23 24 27 28 
 30 34 36 
 7 
 11 20 22 23 25 34 36 
 37 
 1 2 3 4 5 6 7 8 9 10 11 12 
 13 14 15 16 17 18 19 20 21 22 23 24 
 25 26 27 28 29 30 31 32 33 34 35 36 
 37 
 32 
 1 2 3 4 5 6 7 10 11 12 13 14 
 16 17 18 19 20 21 23 24 25 26 27 28 
 29 31 32 33 34 35 36 37 
 5 
 2 7 13 15 37 
 17 
 2 6 7 8 10 13 17 18 21 23 24 30 
 31 33 34 35 36 
 9 
 1 3 4 8 10 14 30 31 32 
 11 
 1 3 4 7 17 22 27 28 30 32 37 
 9 
 1 11 14 20 22 23 29 30 34 
 31 
 1 3 5 6 7 8 9 10 11 13 14 15 
 16 17 18 19 20 22 23 24 25 27 28 29 
 30 31 32 34 35 36 37 
 36 
 1 2 3 4 5 6 7 8 9 10 11 13 
 14 15 16 17 18 19 20 21 22 23 24 25 
 26 27 28 29 30 31 32 33 34 35 36 37 
 6 
 8 14 16 23 36 37 
 10 
 1 4 11 16 17 22 25 29 31 34 
 2 
 25 35 
 30 
 1 3 4 5 6 7 8 9 10 11 12 13 
 14 15 16 17 18 19 21 22 23 25 26 28 
 29 30 31 32 35 36 
 12 
 5 7 8 9 14 15 21 23 27 29 31 35 
 4 
 3 9 10 35 
 32 
 1 3 4 5 6 7 8 10 11 12 13 14 
 15 16 17 18 19 22 23 24 25 26 27 29 
 30 31 32 33 34 35 36 37 
 21 
 1 2 4 5 6 7 11 15 16 18 19 23 
 24 28 29 30 31 32 34 35 36 
 19 
 5 10 11 13 14 15 16 17 18 19 21 22 
 23 24 25 26 28 34 37 
 23 
 4 5 6 7 8 9 11 12 17 18 19 20 
 22 23 24 25 26 28 29 33 34 35 36 
 37 
 1 2 3 4 5 6 7 8 9 10 11 12 
 13 14 15 16 17 18 19 20 21 22 23 24 
 25 26 27 28 29 30 31 32 33 34 35 36 
 37 
 4 
 8 18 31 37 
 25 
 2 4 6 7 8 9 10 11 13 14 16 18 
 19 20 21 23 24 25 26 27 29 30 33 34 
 35 
 10 
 1 3 5 9 12 15 22 25 28 31 
 17 
 1 6 8 9 11 14 15 16 17 18 19 21 
 23 27 28 29 31 
 33 
 1 2 3 4 5 6 7 8 9 10 11 12 
 13 15 17 19 20 21 22 23 24 25 26 27 
 28 29 30 31 32 33 34 35 36 
 5 
 6 8 23 24 29 
 5 
 13 14 19 20 37 
 11 
 4 8 10 16 20 23 25 26 27 35 36 
 23 
 1 2 3 5 6 7 10 13 14 15 16 19 
 20 21 22 23 24 27 28 29 30 34 36 
 9 
 2 5 7 13 14 20 25 29 33 
 37 
 1 2 3 4 5 6 7 8 9 10 11 12 
 13 14 15 16 17 18 19 20 21 22 23 24 
 25 26 27 28 29 30 31 32 33 34 35 36 
 37 
 32 
 1 2 3 4 5 6 7 8 10 11 12 13 
 15 17 18 20 21 22 23 24 25 26 27 28 
 29 30 31 32 33 35 36 37 
 36 
 1 2 3 4 5 6 7 8 9 10 11 12 
 13 14 15 16 17 18 19 20 21 22 23 24 
 25 26 27 28 29 30 31 32 34 35 36 37 
 6 
 3 12 17 29 33 36 
 9 
 1 5 17 20 22 25 32 34 36 
 22 
 2 5 6 7 8 13 15 16 18 21 22 24 
 25 28 30 31 32 33 34 35 36 37 
 20 
 1 4 5 7 9 10 11 12 14 15 16 19 
 20 22 28 29 30 32 34 37 
 28 
 2 4 5 8 9 10 11 12 13 14 15 16 
 17 18 19 20 21 22 23 24 26 27 29 31 
 33 34 36 37 
 35 
 1 2 3 4 5 6 7 8 9 10 11 12 
 13 14 16 17 18 19 20 21 22 23 24 25 
 26 27 28 29 30 31 32 33 34 35 36 
 35 
 1 2 3 4 5 6 7 8 9 10 11 12 
 13 14 15 17 18 19 20 21 22 23 24 25 
 26 27 28 29 30 31 32 33 34 35 36 
 11 
 2 13 14 18 24 28 29 33 34 35 36 
 13 
 3 7 18 20 21 22 24 25 29 31 35 36 
 37 
 26 
 1 2 4 7 11 12 13 14 17 18 19 20 
 21 22 24 25 26 27 29 30 31 32 33 34 
 35 36 
 13 
 6 12 13 15 18 19 20 24 27 28 30 36 
 37 
 27 
 1 5 7 9 10 11 14 15 16 17 19 20 
 22 23 24 25 26 27 28 29 30 31 33 34 
 35 36 37 
 17 
 2 6 7 8 11 12 13 15 17 18 20 21 
 22 25 28 34 37 
 29 
 1 2 3 4 5 6 7 8 9 10 11 12 
 13 14 15 18 20 22 23 24 26 27 29 30 
 31 32 33 36 37 
 26 
 1 2 4 5 6 8 10 11 12 13 16 17 
 18 20 23 25 26 27 28 29 31 32 33 34 
 36 37 
 28 
 1 2 4 5 6 7 8 9 10 11 12 14 
 16 17 18 19 20 22 23 24 26 28 31 32 
 33 34 35 36 
 5 
 6 12 22 23 34 
 7 
 16 19 21 23 27 32 36 
 21 
 1 2 3 5 6 8 9 10 15 17 19 20 
 22 28 30 32 33 34 35 36 37 
 13 
 3 6 9 11 12 15 16 22 24 25 26 33 
 37 
 35 
 1 2 3 5 6 7 8 9 10 11 12 13 
 14 15 16 17 18 19 20 21 22 23 24 25 
 26 27 28 29 30 31 32 34 35 36 37 
 5 
 4 7 25 27 30 
 23 
 1 5 6 8 9 10 11 12 13 14 15 17 
 18 21 22 23 25 26 29 31 33 34 35 
 4 
 10 12 16 24 
 21 
 1 2 4 5 7 9 11 15 16 17 19 20 
 21 22 25 27 28 31 32 33 35 
 14 
 4 7 8 12 16 18 24 29 30 31 32 34 
 35 36 
 33 
 1 2 3 4 5 7 9 10 11 13 14 15 
 16 17 18 19 20 21 23 24 25 26 27 28 
 29 30 31 32 33 34 35 36 37 
 24 
 2 3 6 7 9 10 11 12 15 16 17 19 
 21 22 23 25 26 27 29 31 32 34 36 37 
 4 
 1 2 18 34 
 12 
 2 3 4 7 8 10 19 20 26 27 29 30 
 20 
 1 4 7 8 9 10 11 14 15 17 18 19 
 24 25 27 31 32 33 35 36 
 26 
 2 3 5 6 7 9 10 11 12 13 14 15 
 16 18 20 21 24 26 27 28 29 30 32 34 
 35 36 
 9 
 2 5 7 8 12 13 22 25 33 
 17 
 7 9 10 11 13 14 16 17 20 21 24 27 
 30 32 34 35 37 
 14 
 1 2 5 6 9 15 21 22 23 24 25 27 
 32 35 
 28 
 1 4 6 7 8 9 10 11 12 14 15 16 
 18 19 20 21 23 25 26 27 29 30 31 32 
 33 35 36 37 
 34 
 2 3 4 5 6 7 8 9 10 12 13 14 
 15 16 17 18 19 20 22 23 24 25 26 27 
 28 29 30 31 32 33 34 35 36 37 
 4 
 7 11 17 30 
 